! Westbrook & Dryer (1981) 2-Step Propane Combustion Mechanism
! Reference: Combust. Sci. Technol., 27:31-43 (1981)
! Units: CAL/MOLE, MOLES, CM, S, K

ELEMENTS
C  H  O  N
END

SPECIES
C3H8  O2  CO  CO2  H2O  N2
END

REACTIONS  CAL/MOLE  MOLES
! Step 1: Propane partial oxidation (Table IV)
C3H8 + 3.5 O2 => 3 CO + 4 H2O               1.000E+12   0.0   30000.0
FORD / C3H8 0.10 /
FORD / O2   1.65 /

! Step 2f: Forward CO oxidation (Dryer & Glassman)
CO + 0.5 O2 + H2O => CO2 + H2O              3.981E+14   0.0   40000.0
FORD / CO  1.00 /
FORD / O2  0.25 /
FORD / H2O 0.50 /

! Step 2r: Reverse CO2 dissociation (Westbrook & Dryer 1981)
CO2 => CO + 0.5 O2                          5.000E+08   0.0   40000.0
FORD / CO2 1.0 /
END
